
--- Job plotMaxCut.gms Start 06/29/22 10:18:14 39.2.0 e0c5072f WEX-WEI x86 64bit/MS Windows
--- Applying:
    C:\GAMS\39\gmsprmNT.txt
--- GAMS Parameters defined
    Input C:\projects\OptimizationModels\MaxCut\plotMaxCut.gms
    PageWidth 130
    PageSize 0
    PageContr 3
    Action CE
    ScrDir C:\projects\OptimizationModels\MaxCut\225a\
    SysDir C:\GAMS\39\
    WorkDir C:\projects\OptimizationModels\MaxCut\
    LogOption 3
    DFormat 0
    TFormat 0
    ErrorLog 99
    IDE 1
Licensee: Eval License                                   G211206|0002CO-GEN
          Amsterdam Optimization Modeling Group,                     DCE378
          C:\Users\erwin\Documents\GAMS\gamslice.txt
          License Admin: Erwin Kalvelagen, info@amsterdamoptimization.com  
          Evaluation license: Not for commercial or production use
Processor information: 1 socket(s), 8 core(s), and 16 thread(s) available
GAMS 39.2.0   Copyright (C) 1987-2022 GAMS Development. All rights reserved
--- Starting compilation
--- plotMaxCut.gms(145) 3 Mb
--- $echo File C:\projects\OptimizationModels\MaxCut\network.html
--- plotMaxCut.gms(203) 3 Mb
--- . win32.gms(69) 3 Mb
--- plotMaxCut.gms(205) 3 Mb
--- Starting execution: elapsed 0:00:00.050
--- plotMaxCut.gms(83) 4 Mb
--- Generating MIQCP model maxcut1
--- plotMaxCut.gms(84) 6 Mb
---   1 rows  36 columns  36 non-zeroes
---   467 nl-code  35 nl-non-zeroes
---   35 discrete-columns
--- Range statistics (absolute non-zero finite values)
--- RHS       [min, max] : [        NA,        NA] - Zero values observed as well
--- Bound     [min, max] : [ 1.000E+00, 1.000E+00] - Zero values observed as well
--- Matrix    [min, max] : [ 1.000E+00, 1.000E+00] - Zero values observed as well
--- plotMaxCut.gms(84) 4 Mb
--- Executing CPLEX (Solvelink=2): elapsed 0:00:00.107

IBM ILOG CPLEX   39.2.0 e0c5072f Jun 2, 2022           WEI x86 64bit/MS Window

--- GAMS/Cplex Link licensed for continuous and discrete problems.
--- GMO setup time: 0.00s
--- GMO memory 0.51 Mb (peak 0.51 Mb)
--- Dictionary memory 0.00 Mb
--- Cplex 22.1.0.0 link memory 0.00 Mb (peak 0.01 Mb)
--- Starting Cplex

Version identifier: 22.1.0.0 | 2022-03-09 | 1a383f8ce
CPXPARAM_Advance                                 0
CPXPARAM_Simplex_Display                         2
CPXPARAM_Threads                                 1
CPXPARAM_MIP_Display                             4
CPXPARAM_MIP_Pool_Capacity                       0
CPXPARAM_MIP_Tolerances_AbsMIPGap                0
Generic callback                                 0x50
Found incumbent of value 0.000000 after 0.00 sec. (0.00 ticks)
Tried aggregator 1 time.
MIP Presolve eliminated 0 rows and 1 columns.
MIP Presolve added 232 rows and 116 columns.
Reduced MIP has 232 rows, 151 columns, and 464 nonzeros.
Reduced MIP has 151 binaries, 0 generals, 0 SOSs, and 0 indicators.
Presolve time = 0.03 sec. (0.04 ticks)
Probing time = 0.00 sec. (0.03 ticks)
Tried aggregator 1 time.
Detecting symmetries...
MIP Presolve eliminated 116 rows and 0 columns.
Reduced MIP has 116 rows, 151 columns, and 348 nonzeros.
Reduced MIP has 151 binaries, 0 generals, 0 SOSs, and 0 indicators.
Presolve time = 0.00 sec. (0.30 ticks)
Classifier predicts products in MIQP should be linearized.
Probing time = 0.00 sec. (0.03 ticks)
MIP emphasis: balance optimality and feasibility.
MIP search method: dynamic search.
Parallel mode: none, using 1 thread.
Tried aggregator 1 time.
No LP presolve or aggregator reductions.
Presolve time = 0.00 sec. (0.05 ticks)

Iteration      Dual Objective            In Variable           Out Variable
     1             230.000000                    x37               c1 slack
     2             228.000000                    x38               c2 slack
     3             226.000000                    x39               c3 slack
     4             224.000000                    x40               c4 slack
     5             223.000000               x(node1)               c5 slack
     6             221.000000                    x46              c10 slack
     7             219.000000                    x47              c11 slack
     8             217.000000                    x48              c12 slack
     9             215.000000                    x49              c13 slack
    10             215.000000               x(node2)              c14 slack
    11             213.000000                    x54              c18 slack
    12             211.000000                    x55              c19 slack
    13             209.000000                    x56              c20 slack
    14             207.000000                    x57              c21 slack
    15             207.000000               x(node3)              c22 slack
    16             205.000000                    x62              c26 slack
    17             203.000000                    x63              c27 slack
    18             201.000000                    x64              c28 slack
    19             199.000000                    x65              c29 slack
    20             199.000000               x(node4)              c30 slack
    21             197.000000                    x71              c35 slack
    22             195.000000                    x72              c36 slack
    23             194.000000               x(node5)              c37 slack
    24             192.000000                    x77              c41 slack
    25             191.000000               x(node6)              c42 slack
    26             189.000000                    x80              c44 slack
    27             187.000000                    x81              c45 slack
    28             187.000000               x(node7)              c46 slack
    29             185.000000                    x84              c48 slack
    30             184.000000               x(node8)              c49 slack
    31             182.000000                    x89              c53 slack
    32             180.000000                    x90              c54 slack
    33             180.000000               x(node9)              c55 slack
    34             178.000000                    x94              c58 slack
    35             176.000000                    x95              c59 slack
    36             175.000000              x(node10)              c60 slack
    37             174.000000              x(node11)              c65 slack
    38             174.000000              x(node14)              c68 slack
    39             173.000000              x(node12)              c69 slack
    40             171.000000                   x107              c71 slack
    41             170.000000              x(node13)              c72 slack
    42             169.000000              x(node15)              c76 slack
    43             167.000000                   x115              c79 slack
    44             165.000000                   x116              c80 slack
    45             165.000000              x(node16)              c81 slack
    46             165.000000              x(node17)              c84 slack
    47             163.000000                   x121              c85 slack
    48             163.000000              x(node18)              c86 slack
    49             161.000000                   x124              c88 slack
    50             160.000000              x(node19)              c89 slack
    51             158.000000                   x128              c92 slack
    52             156.000000                   x129              c93 slack
    53             155.000000              x(node20)              c94 slack
    54             153.000000                   x133              c97 slack
    55             151.000000                   x134              c98 slack
    56             149.000000                   x135              c99 slack
    57             148.000000              x(node24)             c100 slack
    58             146.000000                   x137             c101 slack
    59             144.000000                   x138             c102 slack
    60             144.000000              x(node23)             c103 slack
    61             142.000000                   x142             c106 slack
    62             140.000000                   x143             c107 slack
    63             140.000000              x(node25)             c108 slack
    64             138.000000                   x145             c109 slack
    65             136.000000                   x146             c110 slack
    66             134.000000                   x147             c111 slack
    67             133.000000              x(node28)             c112 slack
    68             131.000000                   x151             c115 slack
    69             129.000000                   x152             c116 slack
    70             128.000000               c5 slack               c7 slack
    71             128.000000              x(node27)                    x38
    72             127.000000                    x43                    x40
    73             127.000000                   x108               c8 slack
    74             127.000000              x(node22)                    x48
    75             126.500000              x(node26)              c16 slack
    76             125.500000              x(node30)                    x55
    77             124.500000              c19 slack              c23 slack
    78             124.500000              x(node21)                    x77
    79             123.500000                   x125              c43 slack
    80             121.500000               c2 slack              c56 slack
    81             121.500000                    x44              c73 slack
    82             120.500000               c4 slack               c9 slack
    83             120.500000                   x122                   x107
    84             119.500000                   x109              c87 slack
    85             119.500000              x(node31)              c90 slack
    86             118.500000              c41 slack              c91 slack
    87             118.500000              x(node33)             c105 slack
    88             117.500000             c100 slack              c57 slack
    89             117.500000              c55 slack              c95 slack
    90             117.500000              x(node29)              c61 slack
    91             116.500000              c60 slack              c63 slack
    92             116.500000              x(node35)              c17 slack
    93             116.500000              x(node32)                    x46
    94             116.000000              c84 slack              c64 slack
    95             116.000000                    x48                    x95
    96             116.000000              x(node34)              c52 slack
Root relaxation solution time = 0.06 sec. (0.29 ticks)

        Nodes                                         Cuts/
   Node  Left     Objective  IInf  Best Integer    Best Bound    ItCnt     Gap

*     0+    0                            0.0000      232.0000              --- 
Found incumbent of value 0.000000 after 0.09 sec. (0.89 ticks)
      0     0      116.0000    35        0.0000      116.0000       96     --- 
*     0+    0                           82.0000      116.0000            41.46%
Found incumbent of value 82.000000 after 0.11 sec. (1.17 ticks)
      0     0      108.5000    44       82.0000      Cuts: 39      148   32.32%
      0     0      103.0000    50       82.0000      Cuts: 45      208   25.61%
      0     0      101.3333    60       82.0000  ZeroHalf: 35      252   23.58%
      0     0       99.1429    69       82.0000      Cuts: 38      310   20.91%
      0     0       97.2000    66       82.0000  ZeroHalf: 48      362   18.54%
Detecting symmetries...
      0     0       96.5000    64       82.0000  ZeroHalf: 38      402   17.68%
      0     0       95.3535    74       82.0000  ZeroHalf: 57      443   16.28%
      0     0       93.5000    71       82.0000  ZeroHalf: 42      506   14.02%
      0     0       92.2500    80       82.0000  ZeroHalf: 47      571   12.50%
      0     0       91.4333    80       82.0000      Cuts: 41      639   11.50%
      0     0       91.1667    80       82.0000  ZeroHalf: 36      664   11.18%
      0     0       90.2778    93       82.0000      Cuts: 27      734   10.09%
      0     0       89.8529   101       82.0000      Cuts: 22      781    9.58%
      0     0       89.2679    98       82.0000  ZeroHalf: 26      850    8.86%
      0     0       88.6271   103       82.0000  ZeroHalf: 31      930    8.08%
      0     0       88.4459   112       82.0000  ZeroHalf: 29      970    7.86%
      0     0       88.3581   108       82.0000  ZeroHalf: 10     1001    7.75%
      0     0       88.3182   109       82.0000   ZeroHalf: 6     1028    7.71%
      0     0       88.1978   108       82.0000  ZeroHalf: 12     1069    7.56%
      0     0       87.9847   112       82.0000  ZeroHalf: 21     1129    7.30%
      0     0       87.6354   106       82.0000  ZeroHalf: 18     1207    6.87%
      0     0       87.5833   104       82.0000      Cuts: 26     1255    6.81%
      0     0       87.4595   105       82.0000  ZeroHalf: 21     1304    6.66%
      0     0       87.4107   111       82.0000  ZeroHalf: 26     1344    6.60%
      0     0       87.3777   112       82.0000      Cuts: 13     1407    6.56%
      0     0       87.3556   115       82.0000  ZeroHalf: 11     1458    6.53%
      0     0       87.2193   113       82.0000   ZeroHalf: 9     1515    6.37%
      0     0       87.1986   108       82.0000      Cuts: 19     1559    6.34%
*     0+    0                           84.0000       87.1986             3.81%
Found incumbent of value 84.000000 after 0.24 sec. (141.82 ticks)
Detecting symmetries...
      0     2       87.1986   106       84.0000       87.1986     1559    3.81%
Elapsed time = 0.24 sec. (143.04 ticks, tree = 0.01 MB)
*    10     6      integral     0       85.0000       87.0606     2188    2.42%
Found incumbent of value 85.000000 after 0.25 sec. (153.79 ticks)

Zero-half cuts applied:  88
Gomory fractional cuts applied:  1

Root node processing (before b&c):
  Real time             =    0.24 sec. (143.02 ticks)
Sequential b&c:
  Real time             =    0.03 sec. (23.08 ticks)
                          ------------
Total (root+branch&cut) =    0.27 sec. (166.10 ticks)

--- MIQP status (101): integer optimal solution.
--- Cplex Time: 0.28sec (det. 166.10 ticks)

--- Fixing integer variables and solving final QP...

Version identifier: 22.1.0.0 | 2022-03-09 | 1a383f8ce
CPXPARAM_Advance                                 2
CPXPARAM_Simplex_Display                         2
CPXPARAM_Threads                                 1
CPXPARAM_MIP_Display                             4
CPXPARAM_MIP_Pool_Capacity                       0
CPXPARAM_MIP_Tolerances_AbsMIPGap                0
Number of nonzeros in lower triangle of Q = 116
Using Approximate Minimum Degree ordering
Total time for automatic ordering = 0.00 sec. (0.01 ticks)
Summary statistics for factor of Q:
  Rows in Factor            = 35
  Integer space required    = 82
  Total non-zeros in factor = 374
  Total FP ops to factor    = 5428
Note: Q in objective is not positive semi-definite.
Tried aggregator 1 time.
QP Presolve eliminated 0 rows and 36 columns.
All rows and columns eliminated.
Presolve time = 0.00 sec. (0.04 ticks)

--- Fixed MIQP status (1): optimal.
--- Cplex Time: 0.00sec (det. 0.06 ticks)


Proven optimal solution
MIP Solution:           85.000000    (2807 iterations, 22 nodes)
Final Solve:            85.000000    (0 iterations)

Best possible:          85.000000
Absolute gap:            0.000000
Relative gap:            0.000000

--- Reading solution for model maxcut1
--- Executing after solve: elapsed 0:00:00.514
--- plotMaxCut.gms(243) 4 Mb
--- Initialize embedded library embpycclib64.dll
--- Execute embedded library embpycclib64.dll
--- Putfile fln C:\projects\OptimizationModels\MaxCut\networkdata.js
*** Status: Normal completion
--- Job plotMaxCut.gms Stop 06/29/22 10:18:15 elapsed 0:00:01.267
